33D32945 STP File, STP Format Version 1.0

SECTION Comments
Name "edge_n15_d2_s26"
Problem "Euclidean Steiner Tree Problem"
Remark "Generated with STPGenerator. 2 dimensions."
END

SECTION Graph
Nodes 15
END

SECTION Coordinates
DD 0 0.7955457819 0.7955457819
DD 1 0.2153102822 0.2153102822
DD 2 0.3426214272 0.3426214272
DD 3 0.2961611940 0.2961611940
DD 4 0.2554381654 0.2554381654
DD 5 0.7100804400 0.7100804400
DD 6 0.8547150078 0.8547150078
DD 7 0.6357949691 0.6357949691
DD 8 0.4054190886 0.4054190886
DD 9 0.6635035848 0.6635035848
DD 10 0.7047985609 0.7047985609
DD 11 0.1648330605 0.1648330605
DD 12 0.8887816281 0.8887816281
DD 13 0.2970957897 0.2970957897
DD 14 0.7287201051 0.7287201051
END
